clingo version 5.4.0
Reading from merger/Tom/merge.lp ...
Solving...
UNSATISFIABLE

Models       : 0
Calls        : 1
Time         : 0.108s (Solving: 0.04s 1st Model: 0.00s Unsat: 0.04s)
CPU Time     : 0.094s
